c THIS FORMULA IS GENERATED BY CNF
c 
c atomics
c X_PI <= 42.09_2_n:1
c X_PI <= 48.12_1_n:2
c C_2_2:3
c X_PI <= 42.09_2_s:4
c C_2_1:5
c X_GS <= 37.89_1_p:6
c X_PI <= 48.12_2_s:7
c C_1_1:8
c X_PI <= 42.09_1_n:9
c X_GS <= 37.89_1_n:10
c X_PI <= 42.09_2_p:11
c X_GS <= 37.89_2_n:12
c X_PI <= 42.09_1_p:13
c X_GS <= 37.89_2_s:14
c X_PI <= 48.12_1_s:15
c X_GS <= 37.89_1_s:16
c X_PI <= 48.12_1_p:17
c X_PI <= 48.12_2_p:18
c C_1_2:19
c X_PI <= 48.12_2_n:20
c X_GS <= 37.89_2_p:21
c X_PI <= 42.09_1_s:22
c end atomics
p cnf 22 179
